webassembly/ejemplos_results/16/folder16_json_92.txt
value = 16;
fgas = [1, 1, 2, 1, 1, 1, 1, 1, 1, 1, 2, 1, 1, 1, 1, 1];
fsize = [1, 1, 1, 1, 1, 1, 1, 1, 1, 1, 1, 1, 1, 1, 1, 1];
states = 
[|    in_0, in_1, in_2, in_3, in_4, in_5, in_6, in_7, '.', '.', '.', '.', '.', '.'
 |    in_1, in_2, in_3, in_4, in_5, in_6, in_7,  '.', '.', '.', '.', '.', '.', '.'
 |  's(0)', in_2, in_3, in_4, in_5, in_6, in_7,  '.', '.', '.', '.', '.', '.', '.'
 |    in_2, in_3, in_4, in_5, in_6, in_7,  '.',  '.', '.', '.', '.', '.', '.', '.'
 |    in_2, in_3, in_4, in_5, in_6, in_7,  '.',  '.', '.', '.', '.', '.', '.', '.'
 |    in_2, in_3, in_4, in_5, in_6, in_7,  '.',  '.', '.', '.', '.', '.', '.', '.'
 |    in_2, in_3, in_4, in_5, in_6, in_7,  '.',  '.', '.', '.', '.', '.', '.', '.'
 |    in_2, in_3, in_4, in_5, in_6, in_7,  '.',  '.', '.', '.', '.', '.', '.', '.'
 |    in_2, in_3, in_4, in_5, in_6, in_7,  '.',  '.', '.', '.', '.', '.', '.', '.'
 |    in_2, in_3, in_4, in_5, in_6, in_7,  '.',  '.', '.', '.', '.', '.', '.', '.'
 |    in_2, in_3, in_4, in_5, in_6, in_7,  '.',  '.', '.', '.', '.', '.', '.', '.'
 |    in_3, in_4, in_5, in_6, in_7,  '.',  '.',  '.', '.', '.', '.', '.', '.', '.'
 | local_0, in_0, in_7,  '.',  '.',  '.',  '.',  '.', '.', '.', '.', '.', '.', '.'
 |    in_5, in_6,  '.',  '.',  '.',  '.',  '.',  '.', '.', '.', '.', '.', '.', '.'
 |  's(1)', in_7,  '.',  '.',  '.',  '.',  '.',  '.', '.', '.', '.', '.', '.', '.'
 |  's(1)', in_7,  '.',  '.',  '.',  '.',  '.',  '.', '.', '.', '.', '.', '.', '.'
 |  's(2)',  '.',  '.',  '.',  '.',  '.',  '.',  '.', '.', '.', '.', '.', '.', '.'
 |];
register_states = 
[| local_0, local_1, '.', '.', '.', '.', '.'
 |    in_0, local_1, '.', '.', '.', '.', '.'
 |    in_0, local_1, '.', '.', '.', '.', '.'
 |    in_0, local_1, '.', '.', '.', '.', '.'
 |    in_0,    in_2, '.', '.', '.', '.', '.'
 |    in_0,    in_2, '.', '.', '.', '.', '.'
 |    in_0,    in_2, '.', '.', '.', '.', '.'
 |    in_0,    in_2, '.', '.', '.', '.', '.'
 |    in_0,    in_2, '.', '.', '.', '.', '.'
 |    in_0,    in_2, '.', '.', '.', '.', '.'
 |    in_0,    in_2, '.', '.', '.', '.', '.'
 |    in_0,    in_2, '.', '.', '.', '.', '.'
 |    in_0,    in_2, '.', '.', '.', '.', '.'
 |    in_0,    in_2, '.', '.', '.', '.', '.'
 |    in_0,    in_2, '.', '.', '.', '.', '.'
 |  's(1)',    in_2, '.', '.', '.', '.', '.'
 |  's(1)',    in_2, '.', '.', '.', '.', '.'
 |];
program = [S(SET1), O('i32.load_7'), POP, TEE(TEE2), TEE(TEE2), TEE(TEE2), TEE(TEE2), TEE(TEE2), TEE(TEE2), TEE(TEE2), POP, O('i32.store8_11'), O('i32.store16_2'), O('i32.sub_0'), TEE(TEE1), O('i32.add_0')];
% time elapsed: 0.68 s
----------
value = 15;
fgas = [2, 1, 2, 1, 1, 1, 1, 1, 1, 1, 1, 1, 1, 1, 1, 0];
fsize = [1, 1, 1, 1, 1, 1, 1, 1, 1, 1, 1, 1, 1, 1, 1, 1];
states = 
[|    in_0, in_1, in_2, in_3, in_4, in_5, in_6, in_7, '.', '.', '.', '.', '.', '.'
 |    in_1, in_2, in_3, in_4, in_5, in_6, in_7,  '.', '.', '.', '.', '.', '.', '.'
 |  's(0)', in_2, in_3, in_4, in_5, in_6, in_7,  '.', '.', '.', '.', '.', '.', '.'
 |    in_2, in_3, in_4, in_5, in_6, in_7,  '.',  '.', '.', '.', '.', '.', '.', '.'
 |    in_3, in_4, in_5, in_6, in_7,  '.',  '.',  '.', '.', '.', '.', '.', '.', '.'
 | local_0, in_0, in_7,  '.',  '.',  '.',  '.',  '.', '.', '.', '.', '.', '.', '.'
 | local_0, in_0, in_7,  '.',  '.',  '.',  '.',  '.', '.', '.', '.', '.', '.', '.'
 | local_0, in_0, in_7,  '.',  '.',  '.',  '.',  '.', '.', '.', '.', '.', '.', '.'
 | local_0, in_0, in_7,  '.',  '.',  '.',  '.',  '.', '.', '.', '.', '.', '.', '.'
 | local_0, in_0, in_7,  '.',  '.',  '.',  '.',  '.', '.', '.', '.', '.', '.', '.'
 | local_0, in_0, in_7,  '.',  '.',  '.',  '.',  '.', '.', '.', '.', '.', '.', '.'
 | local_0, in_0, in_7,  '.',  '.',  '.',  '.',  '.', '.', '.', '.', '.', '.', '.'
 |    in_5, in_6,  '.',  '.',  '.',  '.',  '.',  '.', '.', '.', '.', '.', '.', '.'
 |  's(1)', in_7,  '.',  '.',  '.',  '.',  '.',  '.', '.', '.', '.', '.', '.', '.'
 |  's(1)', in_7,  '.',  '.',  '.',  '.',  '.',  '.', '.', '.', '.', '.', '.', '.'
 |  's(2)',  '.',  '.',  '.',  '.',  '.',  '.',  '.', '.', '.', '.', '.', '.', '.'
 |  's(2)',  '.',  '.',  '.',  '.',  '.',  '.',  '.', '.', '.', '.', '.', '.', '.'
 |];
register_states = 
[| local_0, local_1, '.', '.', '.', '.', '.'
 | local_0, local_1, '.', '.', '.', '.', '.'
 | local_0, local_1, '.', '.', '.', '.', '.'
 | local_0, local_1, '.', '.', '.', '.', '.'
 | local_0,    in_2, '.', '.', '.', '.', '.'
 | local_0,    in_2, '.', '.', '.', '.', '.'
 | local_0,    in_2, '.', '.', '.', '.', '.'
 | local_0,    in_2, '.', '.', '.', '.', '.'
 | local_0,    in_2, '.', '.', '.', '.', '.'
 | local_0,    in_2, '.', '.', '.', '.', '.'
 | local_0,    in_2, '.', '.', '.', '.', '.'
 | local_0,    in_2, '.', '.', '.', '.', '.'
 | local_0,    in_2, '.', '.', '.', '.', '.'
 | local_0,    in_2, '.', '.', '.', '.', '.'
 |  's(1)',    in_2, '.', '.', '.', '.', '.'
 |  's(1)',    in_2, '.', '.', '.', '.', '.'
 |  's(1)',    in_2, '.', '.', '.', '.', '.'
 |];
program = [POP, O('i32.load_7'), POP, S(SET2), O('i32.store8_11'), TEE(TEE1), TEE(TEE1), TEE(TEE1), TEE(TEE1), TEE(TEE1), TEE(TEE1), O('i32.store16_2'), O('i32.sub_0'), TEE(TEE1), O('i32.add_0'), NOP];
% time elapsed: 0.78 s
----------
=====UNKNOWN=====
% time elapsed: 0.99 s
